************************************************************************
file with basedata            : mm37_.bas
initial value random generator: 1951042680
************************************************************************
projects                      :  1
jobs (incl. supersource/sink ):  12
horizon                       :  75
RESOURCES
  - renewable                 :  2   R
  - nonrenewable              :  2   N
  - doubly constrained        :  0   D
************************************************************************
PROJECT INFORMATION:
pronr.  #jobs rel.date duedate tardcost  MPM-Time
    1     10      0       12        8       12
************************************************************************
PRECEDENCE RELATIONS:
jobnr.    #modes  #successors   successors
   0        1          3           1   2   3
   1        3          2           7  10
   2        3          2           4   5
   3        3          2           8  10
   4        3          2           6   9
   5        3          1           8
   6        3          2           7  10
   7        3          1           8
   8        3          1          11
   9        3          1          11
  10        3          1          11
  11        1          0        
************************************************************************
REQUESTS/DURATIONS:
jobnr. mode duration  R 1  R 2  R 3  R 4  E(W 1)  E(W 2)  E(W 3)
------------------------------------------------------------------------
  0      1     0       0    0    0    0     0       0       0
  1      1     2       8    6    3    6    28       6      12
  2      1     2       8    6    6    6    28      12      12
  3      1     9       3    6    9   10    81      81      90
  4      1     3       5    4    5    6    27      15      18
  5      1     3      10    5    9    7    45      27      21
  6      1     1       9    7    7    2    16       7       2
  7      1     1       5    7    4    5    12       4       5
  8      1     3       6    9    3   10    45       9      30
  9      1     3       3    6    6    5    27      18      15
 10      1     2       8    7   10    9    30      20      18
 11      1     0       0    0    0    0     0       0       0
************************************************************************
RESOURCEAVAILABILITIES:
  R 1  R 2  R 3
   22   51   49
************************************************************************
RESOURCE LIMITS:
jobnr.  l(R 1)  u(R 1)  l(R 2)  u(R 2)  l(R 3)  u(R 3)
------------------------------------------------------------------------
  0        0       0       0       0       0       0
  1        7      14       2       3       3       6
  2        7      14       3       6       3       6
  3        5       9       5       9       5      10
  4        5       9       3       5       3       6
  5        8      15       5       9       4       7
  6        9      16       4       7       1       2
  7        7      12       2       4       3       5
  8        8      15       2       3       5      10
  9        5       9       3       6       3       5
 10        8      15       5      10       5       9
 11        0       0       0       0       0       0
************************************************************************
SCENARIOS:
------------------------------------------------------------------------
RESOURCE k = 1
s = 1: (0, 22, 43, 66, 21, 27, 17, 7, 50, 26, 31, 0)
s = 2: (0, 39, 32, 61, 34, 32, 17, 10, 57, 35, 40, 0)
s = 3: (0, 27, 18, 97, 16, 45, 10, 13, 57, 20, 28, 0)
s = 4: (0, 33, 43, 60, 29, 40, 15, 10, 41, 30, 41, 0)
s = 5: (0, 28, 35, 60, 24, 69, 17, 19, 69, 31, 40, 0)
s = 6: (0, 42, 21, 87, 35, 27, 12, 12, 57, 27, 29, 0)
s = 7: (0, 27, 37, 79, 27, 46, 16, 16, 27, 33, 33, 0)
s = 8: (0, 42, 28, 67, 18, 47, 15, 10, 35, 35, 23, 0)
s = 9: (0, 30, 29, 80, 29, 42, 12, 15, 55, 35, 23, 0)
s = 10: (0, 33, 26, 87, 26, 42, 18, 12, 52, 39, 21, 0)
s = 11: (0, 22, 25, 115, 28, 27, 14, 18, 26, 30, 31, 0)
s = 12: (0, 20, 28, 118, 22, 37, 25, 9, 59, 33, 24, 0)
s = 13: (0, 28, 27, 73, 23, 56, 13, 12, 41, 17, 26, 0)
s = 14: (0, 22, 16, 72, 41, 38, 17, 13, 39, 20, 33, 0)
s = 15: (0, 32, 28, 95, 21, 42, 27, 9, 69, 23, 22, 0)
s = 16: (0, 26, 25, 98, 38, 26, 12, 18, 60, 44, 37, 0)
s = 17: (0, 38, 30, 91, 19, 51, 13, 15, 62, 33, 35, 0)
s = 18: (0, 23, 30, 89, 21, 33, 25, 12, 43, 39, 40, 0)
s = 19: (0, 46, 25, 55, 37, 58, 13, 19, 60, 47, 51, 0)
s = 20: (0, 29, 24, 86, 38, 42, 13, 7, 36, 21, 28, 0)
s = 21: (0, 29, 29, 81, 21, 49, 14, 15, 38, 18, 35, 0)
s = 22: (0, 26, 41, 78, 47, 54, 11, 16, 57, 30, 29, 0)
s = 23: (0, 16, 23, 115, 19, 49, 16, 8, 69, 28, 29, 0)
s = 24: (0, 48, 18, 59, 29, 59, 22, 13, 53, 26, 48, 0)
s = 25: (0, 22, 31, 83, 26, 42, 13, 11, 43, 35, 33, 0)
s = 26: (0, 27, 26, 55, 25, 41, 13, 11, 33, 29, 25, 0)
s = 27: (0, 34, 26, 76, 22, 60, 26, 17, 41, 35, 19, 0)
s = 28: (0, 24, 29, 83, 28, 26, 14, 10, 33, 20, 39, 0)
s = 29: (0, 21, 41, 76, 39, 40, 15, 10, 38, 35, 26, 0)
s = 30: (0, 32, 27, 64, 26, 59, 18, 9, 41, 37, 36, 0)
s = 31: (0, 23, 26, 71, 28, 34, 21, 12, 50, 22, 18, 0)
s = 32: (0, 53, 34, 72, 33, 39, 24, 13, 51, 25, 19, 0)
s = 33: (0, 22, 25, 86, 26, 41, 18, 10, 64, 19, 47, 0)
s = 34: (0, 41, 31, 45, 19, 41, 17, 10, 40, 22, 26, 0)
s = 35: (0, 36, 19, 50, 24, 28, 17, 14, 28, 22, 16, 0)
s = 36: (0, 25, 30, 60, 24, 51, 24, 17, 56, 24, 28, 0)
s = 37: (0, 35, 24, 127, 20, 50, 23, 11, 29, 21, 29, 0)
s = 38: (0, 31, 25, 88, 24, 45, 23, 10, 28, 42, 18, 0)
s = 39: (0, 44, 31, 149, 35, 56, 22, 9, 47, 46, 26, 0)
s = 40: (0, 31, 20, 60, 20, 46, 24, 8, 42, 20, 29, 0)
s = 41: (0, 28, 26, 78, 17, 55, 13, 11, 37, 19, 27, 0)
s = 42: (0, 21, 23, 111, 18, 43, 10, 19, 45, 33, 31, 0)
s = 43: (0, 29, 18, 112, 24, 53, 19, 8, 36, 23, 32, 0)
s = 44: (0, 27, 24, 109, 29, 52, 13, 11, 40, 34, 31, 0)
s = 45: (0, 23, 22, 111, 18, 76, 14, 12, 68, 43, 30, 0)
s = 46: (0, 22, 22, 99, 18, 63, 24, 11, 34, 24, 22, 0)
s = 47: (0, 17, 28, 76, 21, 39, 12, 13, 64, 26, 28, 0)
s = 48: (0, 30, 32, 118, 18, 37, 11, 15, 58, 17, 46, 0)
s = 49: (0, 34, 32, 70, 31, 32, 12, 10, 75, 28, 28, 0)
s = 50: (0, 37, 20, 46, 38, 44, 23, 16, 60, 36, 42, 0)
s = 51: (0, 27, 24, 82, 29, 57, 16, 12, 45, 19, 51, 0)
s = 52: (0, 30, 30, 90, 35, 41, 25, 11, 35, 16, 26, 0)
s = 53: (0, 17, 42, 75, 31, 66, 23, 11, 84, 23, 31, 0)
s = 54: (0, 18, 19, 104, 33, 44, 15, 21, 30, 36, 24, 0)
s = 55: (0, 23, 35, 94, 18, 66, 13, 12, 73, 18, 39, 0)
s = 56: (0, 25, 33, 85, 33, 40, 13, 7, 41, 23, 51, 0)
s = 57: (0, 27, 32, 97, 27, 33, 19, 15, 37, 21, 19, 0)
s = 58: (0, 24, 17, 87, 19, 29, 10, 18, 53, 28, 32, 0)
s = 59: (0, 29, 16, 91, 30, 49, 19, 9, 81, 30, 39, 0)
s = 60: (0, 36, 29, 101, 25, 45, 21, 13, 48, 15, 30, 0)
s = 61: (0, 34, 25, 65, 19, 33, 18, 17, 48, 22, 34, 0)
s = 62: (0, 26, 25, 72, 39, 39, 14, 15, 32, 42, 44, 0)
s = 63: (0, 35, 16, 92, 16, 26, 11, 9, 51, 28, 33, 0)
s = 64: (0, 34, 32, 81, 33, 35, 15, 8, 51, 17, 22, 0)
s = 65: (0, 25, 41, 75, 23, 57, 12, 10, 35, 23, 46, 0)
s = 66: (0, 40, 24, 69, 28, 35, 16, 8, 30, 32, 29, 0)
s = 67: (0, 29, 22, 69, 25, 44, 11, 17, 50, 21, 22, 0)
s = 68: (0, 23, 32, 89, 28, 28, 12, 14, 37, 34, 34, 0)
s = 69: (0, 24, 21, 54, 25, 63, 15, 21, 26, 49, 45, 0)
s = 70: (0, 27, 27, 119, 25, 54, 24, 19, 41, 24, 30, 0)
s = 71: (0, 23, 21, 52, 24, 51, 20, 8, 38, 33, 33, 0)
s = 72: (0, 28, 34, 56, 31, 47, 16, 10, 41, 38, 38, 0)
s = 73: (0, 29, 43, 69, 21, 36, 14, 11, 32, 25, 33, 0)
s = 74: (0, 32, 37, 48, 39, 52, 26, 11, 43, 21, 37, 0)
s = 75: (0, 15, 33, 102, 23, 41, 16, 19, 46, 29, 41, 0)
s = 76: (0, 37, 29, 116, 19, 37, 17, 10, 30, 15, 18, 0)
s = 77: (0, 26, 27, 106, 30, 66, 11, 11, 38, 23, 30, 0)
s = 78: (0, 28, 37, 72, 42, 41, 11, 10, 42, 22, 27, 0)
s = 79: (0, 22, 33, 85, 22, 24, 10, 13, 69, 23, 24, 0)
s = 80: (0, 38, 19, 87, 25, 73, 16, 14, 50, 28, 20, 0)
s = 81: (0, 28, 23, 50, 35, 33, 10, 13, 44, 34, 28, 0)
s = 82: (0, 43, 34, 76, 19, 74, 22, 15, 61, 23, 41, 0)
s = 83: (0, 29, 18, 82, 27, 44, 14, 11, 33, 20, 23, 0)
s = 84: (0, 27, 22, 127, 32, 39, 16, 12, 32, 28, 30, 0)
s = 85: (0, 34, 28, 86, 39, 46, 16, 17, 62, 26, 21, 0)
s = 86: (0, 32, 38, 128, 27, 40, 23, 8, 52, 16, 27, 0)
s = 87: (0, 28, 34, 85, 41, 79, 12, 10, 32, 37, 26, 0)
s = 88: (0, 24, 18, 90, 34, 59, 23, 15, 41, 23, 24, 0)
s = 89: (0, 28, 16, 43, 24, 40, 20, 13, 49, 29, 33, 0)
s = 90: (0, 29, 31, 72, 31, 47, 14, 10, 62, 34, 37, 0)
s = 91: (0, 25, 37, 60, 32, 44, 16, 16, 32, 33, 38, 0)
s = 92: (0, 16, 25, 91, 15, 35, 15, 13, 43, 21, 25, 0)
s = 93: (0, 41, 25, 73, 28, 25, 9, 10, 53, 34, 35, 0)
s = 94: (0, 26, 35, 105, 47, 29, 13, 16, 56, 43, 17, 0)
s = 95: (0, 27, 39, 102, 40, 36, 12, 8, 42, 37, 23, 0)
s = 96: (0, 18, 35, 94, 30, 45, 21, 11, 28, 48, 30, 0)
s = 97: (0, 37, 25, 53, 16, 41, 19, 8, 31, 31, 17, 0)
s = 98: (0, 18, 17, 89, 28, 32, 16, 13, 48, 23, 40, 0)
s = 99: (0, 26, 19, 74, 29, 51, 12, 11, 50, 28, 45, 0)
s = 100: (0, 23, 37, 105, 22, 51, 15, 17, 55, 17, 27, 0)
s = 101: (0, 49, 18, 107, 24, 40, 13, 10, 50, 27, 30, 0)
s = 102: (0, 34, 23, 129, 38, 31, 26, 15, 64, 33, 23, 0)
s = 103: (0, 21, 18, 63, 50, 32, 16, 12, 69, 32, 31, 0)
s = 104: (0, 38, 23, 73, 19, 51, 17, 12, 47, 26, 47, 0)
s = 105: (0, 36, 21, 60, 26, 31, 18, 13, 43, 28, 19, 0)
s = 106: (0, 25, 28, 74, 39, 34, 18, 10, 59, 35, 20, 0)
s = 107: (0, 24, 40, 53, 26, 45, 14, 8, 61, 17, 31, 0)
s = 108: (0, 26, 24, 87, 32, 37, 23, 14, 37, 30, 22, 0)
s = 109: (0, 25, 19, 57, 35, 39, 20, 15, 61, 20, 27, 0)
s = 110: (0, 29, 27, 76, 21, 28, 23, 17, 27, 36, 18, 0)
s = 111: (0, 30, 23, 52, 18, 49, 18, 8, 34, 23, 25, 0)
s = 112: (0, 26, 35, 86, 27, 39, 16, 13, 31, 22, 19, 0)
s = 113: (0, 36, 24, 74, 28, 66, 19, 15, 50, 20, 18, 0)
s = 114: (0, 31, 30, 81, 39, 43, 24, 9, 54, 26, 28, 0)
s = 115: (0, 22, 21, 107, 21, 35, 24, 16, 36, 26, 22, 0)
s = 116: (0, 22, 31, 53, 23, 48, 13, 11, 27, 48, 30, 0)
s = 117: (0, 22, 21, 90, 30, 27, 14, 13, 52, 16, 27, 0)
s = 118: (0, 31, 34, 85, 24, 50, 22, 11, 38, 28, 20, 0)
s = 119: (0, 21, 32, 58, 15, 58, 16, 8, 51, 18, 27, 0)
s = 120: (0, 27, 31, 95, 20, 38, 14, 8, 57, 30, 23, 0)
s = 121: (0, 22, 26, 75, 29, 48, 23, 10, 57, 33, 33, 0)
s = 122: (0, 24, 28, 89, 33, 67, 14, 15, 42, 44, 34, 0)
s = 123: (0, 28, 32, 51, 45, 76, 17, 11, 73, 26, 29, 0)
s = 124: (0, 17, 48, 93, 23, 56, 14, 10, 40, 21, 21, 0)
s = 125: (0, 37, 24, 61, 27, 48, 11, 11, 59, 43, 37, 0)
s = 126: (0, 23, 24, 65, 24, 43, 13, 15, 56, 25, 25, 0)
s = 127: (0, 23, 30, 103, 23, 36, 22, 12, 46, 28, 21, 0)
s = 128: (0, 31, 24, 66, 19, 46, 20, 14, 74, 24, 19, 0)
s = 129: (0, 40, 41, 78, 24, 45, 14, 14, 60, 37, 24, 0)
s = 130: (0, 16, 33, 87, 26, 47, 15, 16, 53, 37, 55, 0)
s = 131: (0, 35, 31, 101, 33, 69, 16, 12, 37, 38, 20, 0)
s = 132: (0, 17, 19, 113, 22, 28, 9, 16, 61, 35, 34, 0)
s = 133: (0, 30, 28, 63, 34, 57, 24, 10, 56, 20, 31, 0)
s = 134: (0, 17, 39, 76, 21, 61, 17, 12, 58, 28, 36, 0)
s = 135: (0, 25, 16, 104, 23, 71, 10, 12, 45, 34, 45, 0)
s = 136: (0, 43, 23, 82, 41, 51, 19, 15, 39, 39, 46, 0)
s = 137: (0, 34, 25, 96, 21, 25, 16, 9, 40, 16, 20, 0)
s = 138: (0, 28, 36, 111, 42, 49, 23, 10, 38, 20, 31, 0)
s = 139: (0, 34, 37, 69, 23, 36, 22, 9, 69, 33, 26, 0)
s = 140: (0, 27, 24, 50, 23, 39, 11, 16, 75, 23, 26, 0)
s = 141: (0, 33, 22, 114, 23, 32, 19, 11, 39, 38, 25, 0)
s = 142: (0, 33, 16, 54, 28, 34, 18, 17, 47, 17, 20, 0)
s = 143: (0, 21, 44, 81, 33, 53, 15, 19, 34, 41, 21, 0)
s = 144: (0, 25, 25, 81, 23, 43, 16, 12, 26, 26, 22, 0)
s = 145: (0, 30, 29, 100, 17, 55, 15, 12, 46, 19, 24, 0)
s = 146: (0, 39, 28, 61, 25, 32, 13, 9, 51, 43, 25, 0)
s = 147: (0, 28, 32, 54, 28, 34, 23, 9, 50, 35, 31, 0)
s = 148: (0, 25, 32, 57, 17, 68, 15, 12, 36, 39, 40, 0)
s = 149: (0, 24, 21, 48, 34, 39, 16, 17, 29, 34, 35, 0)
s = 150: (0, 22, 33, 106, 46, 29, 16, 12, 24, 27, 25, 0)
s = 151: (0, 29, 29, 100, 28, 28, 14, 14, 38, 26, 36, 0)
s = 152: (0, 25, 21, 139, 21, 58, 15, 13, 51, 27, 24, 0)
s = 153: (0, 45, 34, 74, 26, 67, 15, 11, 34, 17, 32, 0)
s = 154: (0, 21, 26, 71, 19, 51, 16, 10, 41, 19, 37, 0)
s = 155: (0, 33, 17, 73, 23, 44, 26, 12, 32, 31, 34, 0)
s = 156: (0, 25, 39, 98, 26, 47, 12, 17, 46, 42, 21, 0)
s = 157: (0, 33, 27, 62, 28, 47, 9, 11, 55, 35, 35, 0)
s = 158: (0, 32, 20, 86, 18, 68, 12, 15, 67, 35, 28, 0)
s = 159: (0, 22, 38, 108, 31, 41, 18, 11, 38, 19, 38, 0)
s = 160: (0, 36, 24, 62, 22, 40, 16, 12, 42, 16, 29, 0)
s = 161: (0, 27, 25, 83, 14, 35, 12, 13, 53, 21, 43, 0)
s = 162: (0, 28, 19, 73, 27, 29, 18, 9, 55, 17, 24, 0)
s = 163: (0, 23, 34, 62, 36, 68, 16, 13, 43, 38, 33, 0)
s = 164: (0, 16, 38, 88, 20, 40, 14, 17, 32, 24, 19, 0)
s = 165: (0, 28, 19, 49, 23, 52, 24, 17, 32, 27, 38, 0)
s = 166: (0, 26, 34, 110, 21, 60, 11, 16, 35, 31, 49, 0)
s = 167: (0, 31, 25, 91, 27, 29, 17, 7, 32, 21, 30, 0)
s = 168: (0, 30, 27, 85, 31, 41, 15, 10, 32, 22, 19, 0)
s = 169: (0, 20, 35, 48, 19, 34, 19, 10, 48, 15, 19, 0)
s = 170: (0, 21, 41, 88, 19, 61, 24, 15, 27, 42, 25, 0)
s = 171: (0, 27, 16, 101, 19, 30, 26, 11, 63, 24, 25, 0)
s = 172: (0, 20, 32, 145, 31, 26, 13, 17, 46, 36, 35, 0)
s = 173: (0, 26, 41, 64, 22, 67, 23, 11, 37, 29, 43, 0)
s = 174: (0, 36, 32, 66, 33, 37, 18, 9, 48, 26, 25, 0)
s = 175: (0, 23, 42, 86, 28, 61, 12, 12, 41, 19, 34, 0)
s = 176: (0, 26, 26, 103, 32, 62, 18, 9, 50, 28, 38, 0)
s = 177: (0, 18, 26, 124, 24, 33, 9, 9, 86, 27, 25, 0)
s = 178: (0, 33, 15, 89, 27, 37, 14, 8, 28, 27, 27, 0)
s = 179: (0, 29, 32, 79, 32, 43, 18, 12, 56, 18, 31, 0)
s = 180: (0, 33, 34, 87, 18, 40, 19, 10, 44, 34, 32, 0)
s = 181: (0, 23, 43, 60, 20, 64, 17, 9, 43, 18, 28, 0)
s = 182: (0, 39, 46, 80, 33, 64, 17, 8, 54, 28, 20, 0)
s = 183: (0, 29, 27, 80, 23, 48, 11, 8, 38, 30, 21, 0)
s = 184: (0, 24, 23, 58, 26, 36, 14, 12, 33, 25, 28, 0)
s = 185: (0, 20, 29, 107, 25, 27, 20, 9, 39, 19, 34, 0)
s = 186: (0, 44, 18, 63, 25, 69, 12, 11, 43, 41, 46, 0)
s = 187: (0, 30, 38, 78, 24, 43, 13, 8, 36, 37, 18, 0)
s = 188: (0, 40, 27, 46, 27, 57, 14, 10, 45, 37, 46, 0)
s = 189: (0, 48, 37, 117, 32, 27, 12, 16, 32, 27, 24, 0)
s = 190: (0, 29, 20, 104, 17, 44, 16, 9, 47, 26, 27, 0)
s = 191: (0, 33, 30, 83, 33, 41, 13, 12, 56, 20, 31, 0)
s = 192: (0, 33, 31, 118, 26, 58, 9, 12, 39, 16, 49, 0)
s = 193: (0, 19, 21, 69, 22, 40, 11, 9, 60, 21, 33, 0)
s = 194: (0, 25, 18, 87, 30, 45, 13, 8, 41, 34, 23, 0)
s = 195: (0, 34, 43, 108, 17, 62, 10, 10, 34, 16, 36, 0)
s = 196: (0, 28, 39, 100, 20, 36, 14, 16, 30, 20, 35, 0)
s = 197: (0, 23, 20, 111, 30, 40, 16, 13, 42, 30, 27, 0)
s = 198: (0, 35, 30, 94, 24, 59, 18, 13, 42, 24, 38, 0)
s = 199: (0, 43, 35, 126, 26, 66, 15, 8, 42, 27, 43, 0)
s = 200: (0, 27, 25, 77, 32, 33, 21, 10, 57, 24, 32, 0)
------------------------------------------------------------------------
RESOURCE k = 2
s = 1: (0, 5, 19, 66, 12, 17, 8, 3, 10, 18, 21, 0)
s = 2: (0, 9, 14, 61, 19, 19, 8, 4, 12, 23, 27, 0)
s = 3: (0, 6, 8, 97, 9, 27, 5, 5, 12, 13, 19, 0)
s = 4: (0, 7, 19, 60, 16, 24, 7, 4, 9, 20, 28, 0)
s = 5: (0, 6, 15, 60, 14, 42, 8, 7, 14, 21, 27, 0)
s = 6: (0, 9, 9, 87, 20, 17, 6, 4, 12, 18, 20, 0)
s = 7: (0, 6, 16, 79, 15, 28, 7, 6, 6, 22, 22, 0)
s = 8: (0, 9, 12, 67, 10, 29, 7, 4, 7, 23, 15, 0)
s = 9: (0, 7, 13, 80, 16, 25, 6, 5, 11, 24, 15, 0)
s = 10: (0, 7, 11, 87, 15, 25, 8, 4, 11, 26, 14, 0)
s = 11: (0, 5, 11, 115, 16, 17, 6, 6, 6, 20, 21, 0)
s = 12: (0, 5, 12, 118, 12, 22, 11, 3, 12, 22, 16, 0)
s = 13: (0, 6, 12, 73, 13, 34, 6, 4, 9, 11, 18, 0)
s = 14: (0, 5, 7, 72, 23, 23, 8, 5, 8, 14, 22, 0)
s = 15: (0, 7, 12, 95, 12, 25, 12, 3, 14, 16, 15, 0)
s = 16: (0, 6, 11, 98, 21, 16, 5, 6, 12, 29, 25, 0)
s = 17: (0, 8, 13, 91, 11, 31, 6, 5, 13, 22, 23, 0)
s = 18: (0, 5, 13, 89, 12, 20, 11, 4, 9, 26, 27, 0)
s = 19: (0, 10, 11, 55, 21, 35, 6, 7, 12, 31, 34, 0)
s = 20: (0, 7, 11, 86, 21, 26, 6, 3, 8, 14, 19, 0)
s = 21: (0, 7, 13, 81, 12, 30, 6, 5, 8, 12, 24, 0)
s = 22: (0, 6, 18, 78, 26, 33, 5, 6, 12, 20, 19, 0)
s = 23: (0, 4, 10, 115, 11, 30, 7, 3, 14, 19, 20, 0)
s = 24: (0, 11, 8, 59, 16, 35, 10, 5, 11, 18, 32, 0)
s = 25: (0, 5, 14, 83, 14, 26, 6, 4, 9, 24, 22, 0)
s = 26: (0, 6, 12, 55, 14, 25, 6, 4, 7, 20, 17, 0)
s = 27: (0, 8, 11, 76, 12, 36, 12, 6, 9, 23, 13, 0)
s = 28: (0, 6, 13, 83, 16, 16, 7, 4, 7, 14, 26, 0)
s = 29: (0, 5, 18, 76, 22, 24, 7, 4, 8, 23, 18, 0)
s = 30: (0, 7, 12, 64, 15, 36, 8, 3, 9, 25, 24, 0)
s = 31: (0, 5, 11, 71, 16, 21, 10, 4, 10, 15, 12, 0)
s = 32: (0, 12, 15, 72, 19, 24, 11, 5, 11, 17, 13, 0)
s = 33: (0, 5, 11, 86, 15, 25, 8, 4, 13, 13, 32, 0)
s = 34: (0, 9, 14, 45, 11, 25, 8, 4, 8, 15, 17, 0)
s = 35: (0, 8, 8, 50, 13, 17, 8, 5, 6, 15, 11, 0)
s = 36: (0, 6, 13, 60, 13, 31, 11, 6, 12, 16, 19, 0)
s = 37: (0, 8, 10, 127, 12, 30, 10, 4, 6, 14, 20, 0)
s = 38: (0, 7, 11, 88, 14, 27, 10, 4, 6, 28, 12, 0)
s = 39: (0, 10, 13, 149, 20, 34, 10, 3, 10, 31, 18, 0)
s = 40: (0, 7, 9, 60, 12, 28, 11, 3, 9, 13, 20, 0)
s = 41: (0, 6, 11, 78, 10, 33, 6, 4, 8, 13, 18, 0)
s = 42: (0, 5, 10, 111, 10, 26, 4, 7, 9, 22, 21, 0)
s = 43: (0, 7, 8, 112, 14, 32, 8, 3, 8, 15, 22, 0)
s = 44: (0, 6, 11, 109, 16, 31, 6, 4, 8, 23, 21, 0)
s = 45: (0, 5, 10, 111, 10, 46, 6, 4, 14, 29, 20, 0)
s = 46: (0, 5, 10, 99, 10, 38, 11, 4, 7, 16, 15, 0)
s = 47: (0, 4, 12, 76, 12, 23, 6, 5, 13, 18, 19, 0)
s = 48: (0, 7, 14, 118, 10, 22, 5, 5, 12, 12, 31, 0)
s = 49: (0, 8, 14, 70, 18, 20, 5, 4, 15, 19, 19, 0)
s = 50: (0, 8, 9, 46, 21, 27, 11, 6, 12, 24, 28, 0)
s = 51: (0, 6, 11, 82, 16, 35, 7, 4, 9, 13, 34, 0)
s = 52: (0, 7, 13, 90, 20, 25, 11, 4, 7, 11, 18, 0)
s = 53: (0, 4, 18, 75, 17, 40, 10, 4, 17, 16, 21, 0)
s = 54: (0, 4, 8, 104, 18, 27, 7, 7, 6, 24, 16, 0)
s = 55: (0, 5, 15, 94, 10, 40, 6, 4, 15, 12, 26, 0)
s = 56: (0, 6, 14, 85, 19, 24, 6, 3, 9, 15, 34, 0)
s = 57: (0, 6, 14, 97, 15, 20, 8, 5, 8, 14, 13, 0)
s = 58: (0, 6, 8, 87, 11, 18, 5, 6, 11, 19, 22, 0)
s = 59: (0, 7, 7, 91, 17, 30, 8, 3, 17, 20, 26, 0)
s = 60: (0, 8, 13, 101, 14, 27, 9, 5, 10, 10, 20, 0)
s = 61: (0, 8, 11, 65, 11, 20, 8, 6, 10, 15, 23, 0)
s = 62: (0, 6, 11, 72, 22, 24, 6, 5, 7, 28, 29, 0)
s = 63: (0, 8, 7, 92, 9, 16, 5, 3, 11, 19, 22, 0)
s = 64: (0, 8, 14, 81, 18, 21, 7, 3, 11, 11, 15, 0)
s = 65: (0, 6, 18, 75, 13, 34, 5, 4, 7, 15, 31, 0)
s = 66: (0, 9, 11, 69, 16, 21, 7, 3, 6, 22, 20, 0)
s = 67: (0, 7, 10, 69, 14, 27, 5, 6, 10, 14, 15, 0)
s = 68: (0, 5, 14, 89, 16, 17, 6, 5, 8, 23, 23, 0)
s = 69: (0, 5, 9, 54, 14, 38, 7, 7, 6, 33, 30, 0)
s = 70: (0, 6, 12, 119, 14, 33, 11, 7, 9, 16, 20, 0)
s = 71: (0, 5, 9, 52, 14, 31, 9, 3, 8, 22, 22, 0)
s = 72: (0, 6, 15, 56, 17, 28, 7, 4, 9, 25, 26, 0)
s = 73: (0, 7, 19, 69, 12, 22, 6, 4, 7, 17, 22, 0)
s = 74: (0, 7, 16, 48, 22, 31, 12, 4, 9, 14, 25, 0)
s = 75: (0, 4, 14, 102, 13, 25, 7, 7, 10, 20, 28, 0)
s = 76: (0, 8, 13, 116, 11, 22, 8, 4, 6, 10, 12, 0)
s = 77: (0, 6, 12, 106, 17, 40, 5, 4, 8, 16, 20, 0)
s = 78: (0, 6, 16, 72, 24, 25, 5, 4, 9, 15, 18, 0)
s = 79: (0, 5, 15, 85, 13, 15, 5, 5, 14, 15, 16, 0)
s = 80: (0, 9, 8, 87, 14, 44, 7, 5, 10, 19, 13, 0)
s = 81: (0, 6, 10, 50, 20, 20, 4, 5, 9, 23, 19, 0)
s = 82: (0, 10, 15, 76, 11, 44, 10, 5, 13, 16, 27, 0)
s = 83: (0, 7, 8, 82, 15, 27, 6, 4, 7, 14, 15, 0)
s = 84: (0, 6, 10, 127, 18, 24, 7, 4, 7, 19, 20, 0)
s = 85: (0, 8, 12, 86, 22, 28, 7, 6, 13, 17, 14, 0)
s = 86: (0, 7, 17, 128, 15, 24, 10, 3, 11, 11, 18, 0)
s = 87: (0, 6, 15, 85, 23, 48, 5, 4, 7, 25, 17, 0)
s = 88: (0, 6, 8, 90, 19, 36, 10, 5, 9, 16, 16, 0)
s = 89: (0, 6, 7, 43, 14, 24, 9, 5, 10, 20, 22, 0)
s = 90: (0, 7, 14, 72, 18, 28, 6, 4, 13, 23, 25, 0)
s = 91: (0, 6, 16, 60, 18, 27, 7, 6, 7, 22, 25, 0)
s = 92: (0, 4, 11, 91, 8, 21, 7, 5, 9, 14, 17, 0)
s = 93: (0, 9, 11, 73, 16, 15, 4, 4, 11, 23, 24, 0)
s = 94: (0, 6, 15, 105, 26, 18, 6, 6, 12, 29, 12, 0)
s = 95: (0, 6, 17, 102, 23, 22, 6, 3, 9, 25, 16, 0)
s = 96: (0, 4, 15, 94, 17, 27, 9, 4, 6, 32, 20, 0)
s = 97: (0, 8, 11, 53, 9, 25, 8, 3, 7, 21, 12, 0)
s = 98: (0, 4, 8, 89, 16, 19, 7, 5, 10, 16, 27, 0)
s = 99: (0, 6, 9, 74, 16, 31, 5, 4, 10, 19, 30, 0)
s = 100: (0, 5, 16, 105, 13, 31, 7, 6, 11, 11, 18, 0)
s = 101: (0, 11, 8, 107, 14, 24, 6, 4, 10, 18, 20, 0)
s = 102: (0, 8, 10, 129, 21, 19, 12, 5, 13, 22, 15, 0)
s = 103: (0, 5, 8, 63, 28, 19, 7, 4, 14, 21, 21, 0)
s = 104: (0, 8, 10, 73, 11, 31, 8, 4, 10, 18, 32, 0)
s = 105: (0, 8, 9, 60, 15, 19, 8, 5, 9, 19, 13, 0)
s = 106: (0, 6, 12, 74, 22, 21, 8, 4, 12, 23, 14, 0)
s = 107: (0, 6, 17, 53, 15, 27, 7, 3, 13, 11, 21, 0)
s = 108: (0, 6, 10, 87, 18, 23, 10, 5, 8, 20, 15, 0)
s = 109: (0, 6, 8, 57, 20, 23, 9, 5, 13, 13, 18, 0)
s = 110: (0, 7, 12, 76, 12, 17, 10, 6, 6, 24, 12, 0)
s = 111: (0, 7, 10, 52, 10, 30, 8, 3, 7, 16, 17, 0)
s = 112: (0, 6, 15, 86, 15, 24, 7, 5, 7, 15, 13, 0)
s = 113: (0, 8, 11, 74, 16, 40, 9, 5, 10, 13, 12, 0)
s = 114: (0, 7, 13, 81, 22, 26, 11, 3, 11, 18, 19, 0)
s = 115: (0, 5, 9, 107, 12, 21, 11, 6, 8, 17, 15, 0)
s = 116: (0, 5, 13, 53, 13, 29, 6, 4, 6, 32, 20, 0)
s = 117: (0, 5, 9, 90, 17, 16, 7, 5, 11, 11, 18, 0)
s = 118: (0, 7, 15, 85, 14, 30, 10, 4, 8, 19, 13, 0)
s = 119: (0, 5, 14, 58, 9, 35, 7, 3, 11, 12, 18, 0)
s = 120: (0, 6, 14, 95, 11, 23, 7, 3, 12, 20, 15, 0)
s = 121: (0, 5, 11, 75, 16, 29, 10, 4, 12, 22, 22, 0)
s = 122: (0, 6, 12, 89, 19, 40, 7, 5, 9, 30, 23, 0)
s = 123: (0, 6, 14, 51, 25, 46, 8, 4, 15, 17, 20, 0)
s = 124: (0, 4, 21, 93, 13, 34, 7, 4, 8, 14, 14, 0)
s = 125: (0, 8, 11, 61, 15, 29, 5, 4, 12, 29, 25, 0)
s = 126: (0, 5, 10, 65, 13, 26, 6, 5, 12, 17, 17, 0)
s = 127: (0, 5, 13, 103, 13, 22, 10, 4, 10, 19, 14, 0)
s = 128: (0, 7, 10, 66, 11, 28, 9, 5, 15, 16, 13, 0)
s = 129: (0, 9, 18, 78, 13, 27, 7, 5, 12, 25, 16, 0)
s = 130: (0, 4, 14, 87, 15, 28, 7, 6, 11, 25, 37, 0)
s = 131: (0, 8, 14, 101, 18, 42, 7, 4, 8, 25, 13, 0)
s = 132: (0, 4, 8, 113, 12, 17, 4, 6, 13, 23, 23, 0)
s = 133: (0, 7, 12, 63, 19, 34, 11, 4, 12, 14, 21, 0)
s = 134: (0, 4, 17, 76, 12, 37, 8, 4, 12, 19, 24, 0)
s = 135: (0, 6, 7, 104, 13, 43, 5, 4, 9, 23, 30, 0)
s = 136: (0, 10, 10, 82, 23, 31, 8, 5, 8, 26, 31, 0)
s = 137: (0, 8, 11, 96, 12, 15, 7, 3, 8, 11, 13, 0)
s = 138: (0, 6, 16, 111, 24, 30, 10, 4, 8, 14, 21, 0)
s = 139: (0, 8, 16, 69, 13, 22, 10, 3, 14, 22, 17, 0)
s = 140: (0, 6, 11, 50, 13, 24, 5, 6, 15, 16, 18, 0)
s = 141: (0, 7, 10, 114, 13, 19, 9, 4, 8, 25, 17, 0)
s = 142: (0, 7, 7, 54, 16, 21, 8, 6, 10, 12, 14, 0)
s = 143: (0, 5, 19, 81, 18, 32, 7, 7, 7, 28, 14, 0)
s = 144: (0, 6, 11, 81, 13, 26, 7, 4, 6, 17, 15, 0)
s = 145: (0, 7, 13, 100, 10, 33, 7, 4, 10, 13, 16, 0)
s = 146: (0, 9, 12, 61, 14, 19, 6, 3, 11, 29, 17, 0)
s = 147: (0, 6, 14, 54, 16, 21, 10, 3, 10, 24, 21, 0)
s = 148: (0, 6, 14, 57, 10, 41, 7, 4, 8, 26, 27, 0)
s = 149: (0, 5, 9, 48, 19, 24, 7, 6, 6, 23, 24, 0)
s = 150: (0, 5, 15, 106, 26, 18, 7, 4, 5, 18, 17, 0)
s = 151: (0, 7, 13, 100, 16, 17, 7, 5, 8, 17, 24, 0)
s = 152: (0, 6, 9, 139, 12, 35, 7, 5, 11, 18, 16, 0)
s = 153: (0, 10, 15, 74, 15, 41, 7, 4, 7, 12, 22, 0)
s = 154: (0, 5, 11, 71, 11, 31, 7, 4, 9, 13, 25, 0)
s = 155: (0, 7, 7, 73, 13, 27, 11, 4, 7, 21, 23, 0)
s = 156: (0, 6, 17, 98, 14, 28, 6, 6, 10, 28, 14, 0)
s = 157: (0, 8, 12, 62, 16, 29, 4, 4, 11, 23, 24, 0)
s = 158: (0, 7, 9, 86, 10, 41, 5, 5, 14, 23, 19, 0)
s = 159: (0, 5, 17, 108, 17, 25, 8, 4, 8, 13, 25, 0)
s = 160: (0, 8, 10, 62, 12, 24, 7, 4, 9, 11, 19, 0)
s = 161: (0, 6, 11, 83, 8, 21, 6, 5, 11, 14, 29, 0)
s = 162: (0, 6, 9, 73, 15, 18, 8, 3, 11, 12, 16, 0)
s = 163: (0, 5, 15, 62, 20, 41, 7, 5, 9, 25, 22, 0)
s = 164: (0, 4, 17, 88, 11, 24, 6, 6, 7, 16, 13, 0)
s = 165: (0, 6, 8, 49, 13, 31, 11, 6, 7, 18, 25, 0)
s = 166: (0, 6, 15, 110, 12, 36, 5, 6, 7, 21, 33, 0)
s = 167: (0, 7, 11, 91, 15, 18, 8, 3, 7, 14, 20, 0)
s = 168: (0, 7, 12, 85, 17, 25, 7, 4, 7, 15, 13, 0)
s = 169: (0, 5, 15, 48, 11, 21, 9, 4, 10, 10, 13, 0)
s = 170: (0, 5, 18, 88, 11, 37, 11, 5, 6, 28, 17, 0)
s = 171: (0, 6, 7, 101, 11, 18, 12, 4, 13, 16, 17, 0)
s = 172: (0, 5, 14, 145, 18, 16, 6, 6, 10, 24, 23, 0)
s = 173: (0, 6, 18, 64, 12, 41, 10, 4, 8, 20, 29, 0)
s = 174: (0, 8, 14, 66, 18, 22, 8, 3, 10, 17, 17, 0)
s = 175: (0, 5, 18, 86, 16, 37, 6, 4, 9, 13, 23, 0)
s = 176: (0, 6, 11, 103, 18, 37, 8, 3, 10, 19, 25, 0)
s = 177: (0, 4, 11, 124, 14, 20, 4, 3, 18, 18, 17, 0)
s = 178: (0, 7, 7, 89, 15, 22, 7, 3, 6, 18, 18, 0)
s = 179: (0, 7, 14, 79, 18, 26, 8, 4, 12, 12, 21, 0)
s = 180: (0, 8, 15, 87, 10, 24, 8, 4, 9, 23, 21, 0)
s = 181: (0, 5, 19, 60, 11, 39, 8, 3, 9, 12, 19, 0)
s = 182: (0, 9, 20, 80, 19, 38, 8, 3, 11, 19, 14, 0)
s = 183: (0, 7, 12, 80, 13, 29, 5, 3, 8, 20, 14, 0)
s = 184: (0, 6, 10, 58, 15, 22, 6, 4, 7, 17, 19, 0)
s = 185: (0, 5, 13, 107, 14, 16, 9, 3, 8, 13, 23, 0)
s = 186: (0, 10, 8, 63, 14, 42, 6, 4, 9, 28, 31, 0)
s = 187: (0, 7, 16, 78, 14, 26, 6, 3, 8, 25, 12, 0)
s = 188: (0, 9, 12, 46, 15, 34, 6, 4, 9, 25, 31, 0)
s = 189: (0, 11, 16, 117, 18, 16, 5, 6, 7, 18, 16, 0)
s = 190: (0, 7, 9, 104, 10, 27, 7, 3, 10, 17, 18, 0)
s = 191: (0, 7, 13, 83, 18, 25, 6, 4, 12, 13, 21, 0)
s = 192: (0, 7, 14, 118, 15, 35, 4, 4, 8, 11, 33, 0)
s = 193: (0, 4, 9, 69, 12, 24, 5, 3, 12, 14, 22, 0)
s = 194: (0, 6, 8, 87, 17, 27, 6, 3, 9, 23, 15, 0)
s = 195: (0, 8, 19, 108, 10, 37, 5, 4, 7, 11, 24, 0)
s = 196: (0, 6, 17, 100, 11, 22, 6, 6, 6, 14, 23, 0)
s = 197: (0, 5, 9, 111, 17, 24, 7, 5, 9, 20, 18, 0)
s = 198: (0, 8, 13, 94, 13, 36, 8, 5, 9, 16, 25, 0)
s = 199: (0, 10, 15, 126, 15, 40, 7, 3, 9, 18, 29, 0)
s = 200: (0, 6, 11, 77, 18, 20, 10, 4, 12, 16, 22, 0)
------------------------------------------------------------------------
RESOURCE k = 3
s = 1: (0, 10, 19, 74, 14, 13, 3, 3, 33, 15, 19, 0)
s = 2: (0, 17, 14, 68, 23, 15, 3, 5, 38, 20, 24, 0)
s = 3: (0, 12, 8, 108, 11, 21, 2, 6, 38, 11, 17, 0)
s = 4: (0, 14, 19, 67, 19, 19, 2, 5, 28, 17, 25, 0)
s = 5: (0, 12, 15, 66, 16, 33, 3, 8, 46, 18, 24, 0)
s = 6: (0, 18, 9, 97, 24, 13, 2, 5, 38, 15, 18, 0)
s = 7: (0, 12, 16, 88, 18, 22, 2, 7, 18, 19, 20, 0)
s = 8: (0, 18, 12, 75, 12, 22, 2, 5, 23, 19, 14, 0)
s = 9: (0, 13, 13, 89, 20, 20, 2, 7, 37, 20, 14, 0)
s = 10: (0, 14, 11, 97, 18, 20, 3, 5, 35, 22, 13, 0)
s = 11: (0, 10, 11, 127, 19, 13, 2, 8, 17, 17, 19, 0)
s = 12: (0, 9, 12, 131, 15, 17, 4, 4, 39, 18, 15, 0)
s = 13: (0, 12, 12, 81, 16, 26, 2, 5, 27, 10, 16, 0)
s = 14: (0, 10, 7, 80, 28, 18, 3, 6, 26, 11, 20, 0)
s = 15: (0, 14, 12, 105, 14, 20, 4, 4, 46, 13, 14, 0)
s = 16: (0, 11, 11, 109, 25, 13, 2, 8, 40, 25, 22, 0)
s = 17: (0, 16, 13, 101, 13, 24, 2, 6, 42, 19, 21, 0)
s = 18: (0, 10, 13, 99, 14, 16, 4, 5, 29, 22, 24, 0)
s = 19: (0, 20, 11, 61, 25, 27, 2, 8, 40, 26, 31, 0)
s = 20: (0, 13, 11, 95, 25, 20, 2, 3, 24, 12, 17, 0)
s = 21: (0, 13, 13, 90, 14, 23, 2, 7, 25, 10, 21, 0)
s = 22: (0, 12, 18, 86, 31, 26, 2, 7, 38, 17, 18, 0)
s = 23: (0, 7, 10, 128, 13, 23, 2, 4, 46, 16, 18, 0)
s = 24: (0, 21, 8, 66, 19, 28, 3, 6, 35, 15, 29, 0)
s = 25: (0, 10, 14, 93, 17, 20, 2, 5, 29, 20, 20, 0)
s = 26: (0, 12, 12, 61, 17, 20, 2, 5, 22, 17, 15, 0)
s = 27: (0, 15, 11, 84, 15, 28, 4, 7, 27, 19, 12, 0)
s = 28: (0, 11, 13, 92, 19, 13, 2, 4, 22, 11, 24, 0)
s = 29: (0, 9, 18, 84, 26, 19, 2, 5, 25, 19, 16, 0)
s = 30: (0, 14, 12, 71, 18, 28, 3, 4, 28, 21, 22, 0)
s = 31: (0, 10, 11, 79, 19, 16, 3, 5, 33, 13, 11, 0)
s = 32: (0, 23, 15, 80, 22, 19, 3, 6, 34, 14, 12, 0)
s = 33: (0, 10, 11, 95, 18, 20, 3, 5, 43, 11, 28, 0)
s = 34: (0, 18, 14, 49, 13, 19, 3, 5, 27, 13, 16, 0)
s = 35: (0, 16, 8, 56, 16, 14, 3, 6, 19, 12, 10, 0)
s = 36: (0, 11, 13, 67, 16, 24, 3, 7, 37, 13, 17, 0)
s = 37: (0, 15, 10, 142, 14, 24, 3, 5, 20, 12, 18, 0)
s = 38: (0, 13, 11, 98, 16, 21, 3, 5, 19, 23, 11, 0)
s = 39: (0, 19, 13, 166, 24, 26, 3, 4, 32, 26, 16, 0)
s = 40: (0, 14, 9, 66, 14, 22, 3, 4, 28, 11, 18, 0)
s = 41: (0, 12, 11, 86, 12, 26, 2, 5, 25, 11, 16, 0)
s = 42: (0, 9, 10, 123, 12, 20, 2, 8, 30, 19, 19, 0)
s = 43: (0, 13, 8, 125, 16, 25, 3, 4, 24, 13, 20, 0)
s = 44: (0, 12, 11, 122, 19, 25, 2, 5, 27, 19, 19, 0)
s = 45: (0, 10, 10, 123, 12, 36, 2, 5, 46, 24, 18, 0)
s = 46: (0, 10, 10, 110, 12, 30, 3, 5, 23, 14, 13, 0)
s = 47: (0, 7, 12, 85, 14, 18, 2, 6, 43, 15, 17, 0)
s = 48: (0, 13, 14, 131, 12, 17, 2, 7, 39, 10, 28, 0)
s = 49: (0, 15, 14, 78, 21, 15, 2, 4, 50, 16, 17, 0)
s = 50: (0, 16, 9, 51, 25, 21, 3, 7, 40, 20, 25, 0)
s = 51: (0, 12, 11, 91, 19, 27, 2, 5, 30, 11, 31, 0)
s = 52: (0, 13, 13, 100, 23, 20, 4, 5, 23, 9, 16, 0)
s = 53: (0, 8, 18, 84, 21, 31, 3, 5, 56, 13, 19, 0)
s = 54: (0, 8, 8, 116, 22, 21, 2, 9, 20, 20, 14, 0)
s = 55: (0, 10, 15, 105, 12, 31, 2, 5, 49, 10, 23, 0)
s = 56: (0, 11, 14, 94, 22, 19, 2, 3, 27, 13, 31, 0)
s = 57: (0, 12, 14, 107, 18, 16, 3, 6, 25, 12, 12, 0)
s = 58: (0, 11, 8, 96, 13, 14, 2, 8, 36, 16, 20, 0)
s = 59: (0, 13, 7, 101, 20, 23, 3, 4, 54, 17, 23, 0)
s = 60: (0, 16, 13, 112, 17, 21, 3, 6, 32, 8, 18, 0)
s = 61: (0, 15, 11, 73, 13, 16, 3, 7, 32, 12, 20, 0)
s = 62: (0, 12, 11, 80, 26, 19, 2, 7, 22, 23, 26, 0)
s = 63: (0, 15, 7, 102, 11, 13, 2, 4, 34, 16, 20, 0)
s = 64: (0, 15, 14, 90, 22, 16, 2, 3, 34, 9, 13, 0)
s = 65: (0, 11, 18, 83, 15, 27, 2, 4, 23, 13, 28, 0)
s = 66: (0, 17, 11, 77, 19, 16, 2, 4, 20, 18, 18, 0)
s = 67: (0, 13, 10, 77, 17, 21, 2, 7, 33, 12, 13, 0)
s = 68: (0, 10, 14, 99, 19, 13, 2, 6, 25, 19, 21, 0)
s = 69: (0, 10, 9, 60, 17, 30, 2, 9, 17, 27, 27, 0)
s = 70: (0, 12, 12, 132, 17, 26, 3, 8, 28, 14, 18, 0)
s = 71: (0, 10, 9, 58, 16, 24, 3, 4, 26, 18, 20, 0)
s = 72: (0, 12, 15, 63, 21, 22, 2, 5, 27, 21, 23, 0)
s = 73: (0, 13, 19, 77, 14, 17, 2, 5, 22, 14, 20, 0)
s = 74: (0, 14, 16, 53, 26, 24, 4, 5, 29, 12, 22, 0)
s = 75: (0, 7, 14, 114, 15, 20, 2, 8, 31, 16, 25, 0)
s = 76: (0, 16, 13, 129, 13, 18, 3, 4, 20, 8, 11, 0)
s = 77: (0, 11, 12, 118, 20, 31, 2, 5, 25, 13, 18, 0)
s = 78: (0, 12, 16, 80, 28, 19, 2, 4, 28, 13, 17, 0)
s = 79: (0, 10, 15, 95, 15, 12, 2, 6, 46, 13, 15, 0)
s = 80: (0, 17, 8, 96, 17, 34, 2, 6, 33, 16, 12, 0)
s = 81: (0, 12, 10, 55, 24, 16, 2, 6, 30, 19, 17, 0)
s = 82: (0, 19, 15, 85, 13, 35, 3, 6, 41, 13, 25, 0)
s = 83: (0, 13, 8, 91, 18, 21, 2, 5, 22, 11, 14, 0)
s = 84: (0, 12, 10, 141, 21, 19, 2, 5, 22, 16, 18, 0)
s = 85: (0, 15, 12, 95, 26, 22, 2, 7, 41, 15, 13, 0)
s = 86: (0, 14, 17, 142, 18, 19, 3, 4, 35, 9, 16, 0)
s = 87: (0, 12, 15, 95, 28, 37, 2, 5, 22, 21, 16, 0)
s = 88: (0, 11, 8, 100, 23, 28, 3, 6, 28, 13, 14, 0)
s = 89: (0, 12, 7, 47, 16, 19, 3, 6, 33, 16, 20, 0)
s = 90: (0, 13, 14, 80, 21, 22, 2, 4, 41, 19, 22, 0)
s = 91: (0, 11, 16, 66, 22, 21, 2, 7, 22, 19, 23, 0)
s = 92: (0, 7, 11, 101, 10, 17, 2, 6, 29, 12, 15, 0)
s = 93: (0, 18, 11, 82, 19, 12, 2, 4, 36, 19, 21, 0)
s = 94: (0, 11, 15, 116, 31, 14, 2, 7, 38, 24, 10, 0)
s = 95: (0, 12, 17, 113, 27, 17, 2, 4, 28, 21, 14, 0)
s = 96: (0, 8, 15, 104, 20, 21, 3, 5, 19, 27, 18, 0)
s = 97: (0, 16, 11, 59, 11, 20, 3, 4, 21, 17, 11, 0)
s = 98: (0, 8, 8, 99, 19, 15, 2, 6, 32, 13, 24, 0)
s = 99: (0, 12, 9, 82, 19, 24, 2, 5, 33, 16, 27, 0)
s = 100: (0, 10, 16, 116, 15, 24, 2, 8, 37, 9, 16, 0)
s = 101: (0, 21, 8, 119, 16, 19, 2, 4, 34, 15, 18, 0)
s = 102: (0, 15, 10, 143, 25, 15, 4, 7, 43, 18, 14, 0)
s = 103: (0, 9, 8, 70, 33, 15, 2, 5, 46, 18, 19, 0)
s = 104: (0, 16, 10, 81, 13, 24, 3, 5, 31, 15, 29, 0)
s = 105: (0, 16, 9, 66, 18, 15, 3, 6, 29, 16, 12, 0)
s = 106: (0, 11, 12, 83, 26, 16, 3, 5, 39, 20, 12, 0)
s = 107: (0, 11, 17, 58, 17, 21, 2, 4, 41, 10, 19, 0)
s = 108: (0, 12, 10, 96, 21, 18, 3, 6, 25, 17, 13, 0)
s = 109: (0, 11, 8, 63, 24, 18, 3, 6, 41, 11, 16, 0)
s = 110: (0, 13, 12, 85, 14, 14, 3, 7, 18, 20, 11, 0)
s = 111: (0, 13, 10, 57, 12, 23, 3, 4, 23, 13, 15, 0)
s = 112: (0, 12, 15, 95, 18, 19, 2, 6, 21, 12, 12, 0)
s = 113: (0, 16, 11, 82, 19, 31, 3, 6, 34, 11, 11, 0)
s = 114: (0, 14, 13, 90, 26, 20, 3, 4, 36, 15, 17, 0)
s = 115: (0, 10, 9, 119, 14, 17, 3, 7, 24, 15, 13, 0)
s = 116: (0, 10, 13, 59, 15, 23, 2, 5, 18, 27, 18, 0)
s = 117: (0, 10, 9, 100, 20, 13, 2, 6, 35, 9, 16, 0)
s = 118: (0, 13, 15, 94, 16, 24, 3, 5, 25, 16, 12, 0)
s = 119: (0, 9, 14, 64, 10, 27, 2, 4, 34, 10, 16, 0)
s = 120: (0, 12, 14, 105, 13, 18, 2, 4, 38, 17, 14, 0)
s = 121: (0, 10, 11, 83, 20, 23, 3, 5, 38, 18, 20, 0)
s = 122: (0, 11, 12, 99, 22, 31, 2, 7, 28, 25, 21, 0)
s = 123: (0, 12, 14, 56, 30, 36, 3, 5, 49, 14, 18, 0)
s = 124: (0, 7, 21, 104, 16, 26, 2, 4, 27, 12, 13, 0)
s = 125: (0, 16, 11, 68, 18, 23, 2, 5, 39, 24, 22, 0)
s = 126: (0, 10, 10, 72, 16, 20, 2, 6, 37, 14, 15, 0)
s = 127: (0, 10, 13, 114, 16, 17, 3, 5, 31, 16, 13, 0)
s = 128: (0, 14, 10, 74, 13, 22, 3, 6, 50, 14, 12, 0)
s = 129: (0, 17, 18, 86, 16, 21, 2, 6, 40, 21, 15, 0)
s = 130: (0, 7, 14, 97, 18, 22, 2, 7, 35, 21, 33, 0)
s = 131: (0, 15, 14, 112, 22, 32, 2, 5, 25, 21, 12, 0)
s = 132: (0, 7, 8, 126, 15, 13, 2, 7, 41, 20, 20, 0)
s = 133: (0, 13, 12, 70, 23, 27, 3, 5, 37, 11, 19, 0)
s = 134: (0, 8, 17, 84, 14, 29, 3, 5, 39, 16, 22, 0)
s = 135: (0, 11, 7, 116, 15, 34, 2, 5, 30, 19, 27, 0)
s = 136: (0, 19, 10, 91, 27, 24, 3, 6, 26, 22, 28, 0)
s = 137: (0, 15, 11, 106, 14, 12, 2, 4, 27, 9, 12, 0)
s = 138: (0, 12, 16, 123, 28, 23, 3, 5, 25, 11, 19, 0)
s = 139: (0, 15, 16, 77, 15, 17, 3, 4, 46, 19, 16, 0)
s = 140: (0, 12, 11, 56, 15, 19, 2, 7, 50, 13, 16, 0)
s = 141: (0, 14, 10, 127, 16, 15, 3, 5, 26, 21, 15, 0)
s = 142: (0, 14, 7, 60, 19, 16, 3, 7, 31, 10, 12, 0)
s = 143: (0, 9, 19, 90, 22, 25, 2, 8, 23, 23, 13, 0)
s = 144: (0, 11, 11, 90, 15, 20, 2, 5, 17, 15, 13, 0)
s = 145: (0, 13, 13, 111, 12, 26, 2, 5, 31, 11, 14, 0)
s = 146: (0, 17, 12, 67, 17, 15, 2, 4, 34, 24, 15, 0)
s = 147: (0, 12, 14, 59, 19, 16, 3, 4, 34, 20, 19, 0)
s = 148: (0, 11, 14, 63, 12, 32, 2, 5, 24, 22, 24, 0)
s = 149: (0, 10, 9, 53, 23, 19, 2, 7, 19, 19, 21, 0)
s = 150: (0, 10, 15, 118, 31, 14, 2, 5, 16, 15, 15, 0)
s = 151: (0, 13, 13, 111, 19, 13, 2, 6, 25, 15, 22, 0)
s = 152: (0, 11, 9, 154, 14, 27, 2, 6, 34, 15, 15, 0)
s = 153: (0, 19, 15, 82, 18, 32, 2, 5, 23, 10, 20, 0)
s = 154: (0, 9, 11, 79, 13, 24, 2, 5, 28, 11, 22, 0)
s = 155: (0, 14, 7, 81, 15, 21, 4, 5, 22, 17, 20, 0)
s = 156: (0, 11, 17, 109, 17, 22, 2, 7, 31, 24, 13, 0)
s = 157: (0, 15, 12, 69, 19, 22, 2, 5, 37, 19, 21, 0)
s = 158: (0, 14, 9, 96, 12, 32, 2, 6, 45, 20, 17, 0)
s = 159: (0, 10, 17, 120, 21, 19, 3, 5, 26, 11, 23, 0)
s = 160: (0, 16, 10, 69, 15, 19, 2, 5, 28, 9, 18, 0)
s = 161: (0, 12, 11, 92, 10, 16, 2, 6, 36, 12, 26, 0)
s = 162: (0, 12, 9, 81, 18, 14, 3, 4, 37, 10, 15, 0)
s = 163: (0, 10, 15, 68, 24, 32, 2, 6, 29, 21, 20, 0)
s = 164: (0, 7, 17, 97, 13, 19, 2, 7, 22, 14, 12, 0)
s = 165: (0, 12, 8, 55, 16, 25, 3, 7, 22, 15, 23, 0)
s = 166: (0, 11, 15, 122, 14, 28, 2, 7, 24, 17, 30, 0)
s = 167: (0, 14, 11, 101, 18, 14, 3, 3, 21, 12, 18, 0)
s = 168: (0, 13, 12, 95, 21, 19, 2, 4, 22, 12, 11, 0)
s = 169: (0, 9, 15, 53, 13, 16, 3, 4, 32, 9, 12, 0)
s = 170: (0, 9, 18, 97, 13, 29, 3, 7, 18, 24, 15, 0)
s = 171: (0, 12, 7, 112, 13, 14, 4, 5, 42, 14, 15, 0)
s = 172: (0, 9, 14, 161, 21, 13, 2, 8, 31, 20, 21, 0)
s = 173: (0, 12, 18, 71, 15, 32, 3, 5, 25, 16, 26, 0)
s = 174: (0, 16, 14, 74, 22, 17, 3, 4, 32, 15, 15, 0)
s = 175: (0, 10, 18, 95, 19, 29, 2, 5, 27, 11, 21, 0)
s = 176: (0, 11, 11, 114, 22, 29, 3, 4, 33, 16, 23, 0)
s = 177: (0, 8, 11, 138, 16, 16, 2, 4, 57, 15, 15, 0)
s = 178: (0, 14, 7, 98, 18, 17, 2, 4, 19, 15, 16, 0)
s = 179: (0, 13, 14, 88, 21, 20, 3, 5, 38, 10, 19, 0)
s = 180: (0, 15, 15, 96, 12, 19, 3, 5, 29, 19, 19, 0)
s = 181: (0, 10, 19, 67, 14, 30, 3, 4, 29, 10, 17, 0)
s = 182: (0, 17, 20, 89, 22, 30, 3, 3, 36, 16, 12, 0)
s = 183: (0, 13, 12, 89, 16, 23, 2, 4, 25, 17, 13, 0)
s = 184: (0, 11, 10, 65, 18, 17, 2, 5, 22, 14, 17, 0)
s = 185: (0, 9, 13, 119, 17, 13, 3, 4, 26, 11, 21, 0)
s = 186: (0, 19, 8, 70, 17, 32, 2, 5, 29, 23, 28, 0)
s = 187: (0, 13, 16, 87, 16, 20, 2, 4, 24, 21, 11, 0)
s = 188: (0, 18, 12, 51, 18, 27, 2, 4, 30, 21, 28, 0)
s = 189: (0, 21, 16, 129, 22, 13, 2, 7, 22, 15, 15, 0)
s = 190: (0, 13, 9, 115, 11, 21, 2, 4, 32, 14, 16, 0)
s = 191: (0, 14, 13, 93, 22, 20, 2, 5, 37, 11, 19, 0)
s = 192: (0, 14, 14, 131, 18, 28, 2, 5, 26, 9, 29, 0)
s = 193: (0, 8, 9, 77, 15, 19, 2, 4, 40, 12, 20, 0)
s = 194: (0, 11, 8, 97, 20, 21, 2, 3, 28, 19, 14, 0)
s = 195: (0, 15, 19, 120, 12, 29, 2, 4, 23, 9, 22, 0)
s = 196: (0, 12, 17, 111, 13, 17, 2, 7, 20, 12, 21, 0)
s = 197: (0, 10, 9, 123, 20, 19, 2, 6, 28, 17, 16, 0)
s = 198: (0, 15, 13, 105, 16, 28, 3, 6, 28, 14, 23, 0)
s = 199: (0, 19, 15, 140, 18, 31, 2, 4, 28, 15, 26, 0)
s = 200: (0, 12, 11, 86, 22, 16, 3, 4, 38, 13, 19, 0)
************************************************************************
ES/LS-VALUES:
jobnr.   ES(i)    LS(i)
------------------------------------------------------------------------
  0        0        0
  1        0       63
  2        0       55
  3        0       52
  4        3       59
  5        3       63
  6        8       65
  7       10       67
  8       16       69
  9        8       69
 10       16       71
 11       22       75
************************************************************************
BIG-M-VALUES:
M1 = 94, M2 = 464
************************************************************************
